words_hard_train/6035.qaiger
aag 143 24 0 1 119
2
4
12
14
20
24
28
38
40
44
48
52
56
60
64
78
86
102
118
134
150
166
202
248
287
6 2 4
8 3 5
10 7 9
16 12 15
18 17 15
22 18 21
26 22 25
30 26 29
32 10 31
34 11 30
36 33 35
42 39 41
46 42 45
50 46 49
54 50 53
58 54 57
62 58 61
66 62 65
68 63 64
70 67 69
72 36 70
74 37 71
76 73 75
80 78 38
82 38 40
84 83 43
88 85 87
90 84 86
92 89 91
94 80 92
96 95 91
98 43 44
100 99 47
104 101 103
106 100 102
108 105 107
110 97 108
112 111 107
114 47 48
116 115 51
120 117 119
122 116 118
124 121 123
126 113 124
128 127 123
130 51 52
132 131 55
136 133 135
138 132 134
140 137 139
142 129 140
144 143 139
146 55 56
148 147 59
152 149 151
154 148 150
156 153 155
158 145 156
160 159 155
162 59 60
164 163 63
168 165 167
170 164 166
172 169 171
174 161 172
176 175 171
178 77 177
180 76 176
182 179 181
184 23 24
186 185 27
188 144 157
190 189 159
192 187 191
194 186 190
196 193 195
198 81 93
200 199 95
204 201 202
206 96 109
208 207 111
210 208 12
212 205 211
214 209 13
216 212 215
218 19 20
220 219 23
222 128 141
224 223 143
226 221 225
228 216 227
230 13 14
232 231 17
234 112 125
236 235 127
238 233 236
240 228 239
242 232 237
244 79 39
246 245 81
250 246 249
252 247 248
254 251 253
256 200 203
258 254 257
260 220 224
262 258 261
264 243 262
266 240 264
268 196 266
270 27 28
272 271 31
274 160 173
276 275 175
278 272 276
280 268 279
282 273 277
284 280 283
286 183 284
i0 1 x1[7]
i1 2 y1[7]
i2 1 x2[2]
i3 1 x2[3]
i4 1 x2[4]
i5 1 x2[5]
i6 1 x2[6]
i7 2 y1[0]
i8 2 y1[1]
i9 2 y1[2]
i10 2 y1[3]
i11 2 y1[4]
i12 2 y1[5]
i13 2 y1[6]
i14 1 x2[7]
i15 1 x1[0]
i16 1 x1[1]
i17 1 x1[2]
i18 1 x1[3]
i19 1 x1[4]
i20 1 x1[5]
i21 1 x1[6]
i22 1 x2[1]
i23 1 x2[0]
o0 bool[0]
c
simplified
  !=
    subtract
      1 x1
      2 y1
    subtract
      1 x2
      << 2
        1
