words_hard_train/6035.qaiger.qdimacs
p cnf 143 358
a 32 1 67 101 6 7 39 10 43 12 75 14 51 83 59 124 0
e 2 3 4 5 8 9 11 13 15 16 17 18 19 20 21 22 23 24 25 26 27 28 29 30 31 33 34 35 36 37 38 40 41 42 44 45 46 47 48 49 50 52 53 54 55 56 57 58 60 61 62 63 64 65 66 68 69 70 71 72 73 74 76 77 78 79 80 81 82 84 85 86 87 88 89 90 91 92 93 94 95 96 97 98 99 100 102 103 104 105 106 107 108 109 110 111 112 113 114 115 116 117 118 119 120 121 122 123 125 126 127 128 129 130 131 132 133 134 135 136 137 138 139 140 141 142 143 0
-1 -2 3 0
1 -3 0
2 -3 0
1 2 4 0
-1 -4 0
-2 -4 0
3 4 5 0
-3 -5 0
-4 -5 0
-6 7 8 0
6 -8 0
-7 -8 0
8 7 9 0
-8 -9 0
-7 -9 0
-9 10 11 0
9 -11 0
-10 -11 0
-11 12 13 0
11 -13 0
-12 -13 0
-13 14 15 0
13 -15 0
-14 -15 0
-5 15 16 0
5 -16 0
-15 -16 0
5 -15 17 0
-5 -17 0
15 -17 0
16 17 18 0
-16 -18 0
-17 -18 0
19 20 21 0
-19 -21 0
-20 -21 0
-21 22 23 0
21 -23 0
-22 -23 0
-23 24 25 0
23 -25 0
-24 -25 0
-25 26 27 0
25 -27 0
-26 -27 0
-27 28 29 0
27 -29 0
-28 -29 0
-29 30 31 0
29 -31 0
-30 -31 0
-31 32 33 0
31 -33 0
-32 -33 0
31 -32 34 0
-31 -34 0
32 -34 0
33 34 35 0
-33 -35 0
-34 -35 0
-18 -35 36 0
18 -36 0
35 -36 0
18 35 37 0
-18 -37 0
-35 -37 0
36 37 38 0
-36 -38 0
-37 -38 0
-39 -19 40 0
39 -40 0
19 -40 0
-19 -20 41 0
19 -41 0
20 -41 0
41 21 42 0
-41 -42 0
-21 -42 0
42 43 44 0
-42 -44 0
-43 -44 0
-42 -43 45 0
42 -45 0
43 -45 0
44 45 46 0
-44 -46 0
-45 -46 0
-40 -46 47 0
40 -47 0
46 -47 0
47 45 48 0
-47 -48 0
-45 -48 0
21 -22 49 0
-21 -49 0
22 -49 0
49 23 50 0
-49 -50 0
-23 -50 0
50 51 52 0
-50 -52 0
-51 -52 0
-50 -51 53 0
50 -53 0
51 -53 0
52 53 54 0
-52 -54 0
-53 -54 0
48 -54 55 0
-48 -55 0
54 -55 0
55 53 56 0
-55 -56 0
-53 -56 0
23 -24 57 0
-23 -57 0
24 -57 0
57 25 58 0
-57 -58 0
-25 -58 0
58 59 60 0
-58 -60 0
-59 -60 0
-58 -59 61 0
58 -61 0
59 -61 0
60 61 62 0
-60 -62 0
-61 -62 0
56 -62 63 0
-56 -63 0
62 -63 0
63 61 64 0
-63 -64 0
-61 -64 0
25 -26 65 0
-25 -65 0
26 -65 0
65 27 66 0
-65 -66 0
-27 -66 0
66 67 68 0
-66 -68 0
-67 -68 0
-66 -67 69 0
66 -69 0
67 -69 0
68 69 70 0
-68 -70 0
-69 -70 0
64 -70 71 0
-64 -71 0
70 -71 0
71 69 72 0
-71 -72 0
-69 -72 0
27 -28 73 0
-27 -73 0
28 -73 0
73 29 74 0
-73 -74 0
-29 -74 0
74 75 76 0
-74 -76 0
-75 -76 0
-74 -75 77 0
74 -77 0
75 -77 0
76 77 78 0
-76 -78 0
-77 -78 0
72 -78 79 0
-72 -79 0
78 -79 0
79 77 80 0
-79 -80 0
-77 -80 0
29 -30 81 0
-29 -81 0
30 -81 0
81 31 82 0
-81 -82 0
-31 -82 0
82 83 84 0
-82 -84 0
-83 -84 0
-82 -83 85 0
82 -85 0
83 -85 0
84 85 86 0
-84 -86 0
-85 -86 0
80 -86 87 0
-80 -87 0
86 -87 0
87 85 88 0
-87 -88 0
-85 -88 0
38 88 89 0
-38 -89 0
-88 -89 0
-38 -88 90 0
38 -90 0
88 -90 0
89 90 91 0
-89 -91 0
-90 -91 0
11 -12 92 0
-11 -92 0
12 -92 0
92 13 93 0
-92 -93 0
-13 -93 0
-72 78 94 0
72 -94 0
-78 -94 0
94 79 95 0
-94 -95 0
-79 -95 0
93 95 96 0
-93 -96 0
-95 -96 0
-93 -95 97 0
93 -97 0
95 -97 0
96 97 98 0
-96 -98 0
-97 -98 0
40 46 99 0
-40 -99 0
-46 -99 0
99 47 100 0
-99 -100 0
-47 -100 0
100 -101 102 0
-100 -102 0
101 -102 0
-48 54 103 0
48 -103 0
-54 -103 0
103 55 104 0
-103 -104 0
-55 -104 0
-104 -6 105 0
104 -105 0
6 -105 0
102 105 106 0
-102 -106 0
-105 -106 0
104 6 107 0
-104 -107 0
-6 -107 0
-106 107 108 0
106 -108 0
-107 -108 0
9 -10 109 0
-9 -109 0
10 -109 0
109 11 110 0
-109 -110 0
-11 -110 0
-64 70 111 0
64 -111 0
-70 -111 0
111 71 112 0
-111 -112 0
-71 -112 0
110 112 113 0
-110 -113 0
-112 -113 0
-108 113 114 0
108 -114 0
-113 -114 0
6 -7 115 0
-6 -115 0
7 -115 0
115 8 116 0
-115 -116 0
-8 -116 0
-56 62 117 0
56 -117 0
-62 -117 0
117 63 118 0
-117 -118 0
-63 -118 0
116 -118 119 0
-116 -119 0
118 -119 0
-114 119 120 0
114 -120 0
-119 -120 0
-116 118 121 0
116 -121 0
-118 -121 0
39 19 122 0
-39 -122 0
-19 -122 0
122 40 123 0
-122 -123 0
-40 -123 0
-123 124 125 0
123 -125 0
-124 -125 0
123 -124 126 0
-123 -126 0
124 -126 0
125 126 127 0
-125 -127 0
-126 -127 0
-100 101 128 0
100 -128 0
-101 -128 0
-127 128 129 0
127 -129 0
-128 -129 0
-110 -112 130 0
110 -130 0
112 -130 0
-129 130 131 0
129 -131 0
-130 -131 0
121 -131 132 0
-121 -132 0
131 -132 0
-120 -132 133 0
120 -133 0
132 -133 0
-98 -133 134 0
98 -134 0
133 -134 0
13 -14 135 0
-13 -135 0
14 -135 0
135 15 136 0
-135 -136 0
-15 -136 0
-80 86 137 0
80 -137 0
-86 -137 0
137 87 138 0
-137 -138 0
-87 -138 0
-136 -138 139 0
136 -139 0
138 -139 0
-134 139 140 0
134 -140 0
-139 -140 0
136 138 141 0
-136 -141 0
-138 -141 0
-140 141 142 0
140 -142 0
-141 -142 0
91 -142 143 0
-91 -143 0
142 -143 0
-143 0
